100 8
486 941
419 589
609 849
185 467
617 282
668 125
757 319
390 951
47 243
128 469
353 151
359 536
213 187
639 453
345 676
645 887
162 251
589 780
113 338
705 880
806 779
347 414
348 117
605 523
300 182
703 935
242 619
545 957
351 149
286 650
391 210
63 459
179 259
485 990
411 977
634 920
646 642
390 397
521 694
332 655
100 119
165 546
723 17
300 116
304 715
319 85
520 852
393 528
556 916
355 433
760 800
352 534
546 666
641 625
422 840
345 227
273 261
417 462
111 73
197 324
606 357
491 561
268 536
64 499
386 506
706 91
663 292
643 295
248 452
414 857
280 142
496 585
571 653
77 127
745 806
328 908
603 549
413 890
731 274
403 192
130 390
366 813
719 936
537 929
241 361
628 63
210 479
418 510
454 133
256 476
306 353
742 787
534 921
136 157
328 981
641 583
201 249
303 976
234 622
449 168
